20	5
0	9	2	3	1	6	9	5	7	4	8
1	7	14	16	12	15	13	20	17
2	8	17	20	13	15	19	18	16	12
3	5	11	19	14	12	15
4	6	10	18	12	15	19	14
5	8	15	13	12	19	14	20	18	17
6	4	20	19	18	16
7	6	20	15	17	14	18	16
8	6	18	12	15	13	20	14
9	5	19	12	11	14	15
10	3	16	17	20
11	2	10	18
12	1	21
13	1	21
14	1	21
15	1	21
16	1	21
17	1	21
18	1	21
19	1	21
20	1	21
21	0
0	0	0	0	0	0	0
1	9	0	0	0	3	0
2	8	5	4	2	0	2
3	3	2	2	0	4	0
4	4	0	3	1	2	0
5	10	0	2	0	0	0
6	9	4	5	5	4	1
7	3	0	0	5	0	0
8	5	5	5	4	4	0
9	4	5	0	0	2	0
10	8	1	1	5	1	2
11	10	0	0	5	1	2
12	9	4	5	0	0	4
13	5	3	0	0	0	3
14	2	0	0	1	3	2
15	5	0	0	0	0	4
16	9	0	0	0	0	4
17	10	1	3	0	0	0
18	4	4	3	0	1	0
19	2	0	0	0	2	5
20	1	0	4	0	0	0
21	0	0	0	0	0	0
5	5	5	5	5
